20	5
0	7	4	6	5	1	7	2	3
1	4	16	12	9	17
2	3	17	16	12
3	3	12	16	9
4	4	13	18	15	19
5	3	10	8	14
6	5	15	18	16	20	17
7	5	19	11	15	18	13
8	2	18	19
9	3	8	15	10
10	1	13
11	2	14	20
12	2	8	10
13	0
14	1	16
15	1	21
16	1	21
17	1	21
18	1	21
19	1	21
20	1	21
21	0
0	0	0	0	0	0	0
1	2	1	2	4	1	4
2	10	3	0	1	0	2
3	8	4	3	3	3	1
4	10	4	5	1	2	2
5	10	4	0	0	1	0
6	2	4	1	4	5	1
7	9	0	5	4	0	4
8	8	0	0	0	3	5
9	8	4	3	0	0	0
10	5	0	2	0	5	0
11	2	1	5	2	1	5
12	6	4	2	0	2	4
13	2	5	5	0	5	3
14	8	4	1	4	3	5
15	7	5	1	2	4	1
16	3	3	2	4	2	1
17	6	2	0	2	0	1
18	3	0	4	0	2	1
19	4	1	4	2	3	5
20	2	0	3	5	0	0
21	0	0	0	0	0	0
10	9	9	8	8
